50
    1     5     5
    2    50    46
    3    42    46
    4    26    27
    5     6     8
    6    15    15
    7    29    31
    8    48    45
    9    43    43
   10    26    22
   11    40    45
   12    33    29
   13    50    46
   14    11     6
   15    29    28
   16    23    28
   17    44    45
   18    33    38
   19    13    11
   20    39    40
   21    27    27
   22    11    11
   23     1     6
   24    11    14
   25     1     6
   26    32    36
   27    23    28
   28    49    45
   29     1     5
   30    39    37
   31    35    33
   32     4     7
   33     5     7
   34    43    39
   35    51    50
   36    35    37
   37    16    12
   38    29    30
   39     4     6
   40     9     6
   41     3     1
   42    27    27
   43    45    40
   44    21    23
   45    41    39
   46     7     8
   47    13     9
   48    31    29
   49    19    19
   50     6     2
1035
